Reading model...
...model read.
creating competitive generators file...
...competitive generators recorded.
Loading data...
.. real-time data read.
Compiling instance...
...instance created.
Creating Offer Mitigation (model will solve as dispatch if TRUE)...
NOTE: storage offers will not be mitigated
...storage offer mitigation file created
Converting model to MPEC...
...converted
NOTE: initial MIP solve with only storage competitive to get feasible solution
Solving...

Welcome to IBM(R) ILOG(R) CPLEX(R) Interactive Optimizer 12.9.0.0
  with Simplex, Mixed Integer & Barrier Optimizers
5725-A06 5725-A29 5724-Y48 5724-Y49 5724-Y54 5724-Y55 5655-Y21
Copyright IBM Corp. 1988, 2019.  All Rights Reserved.

Type 'help' for a list of available commands.
Type 'help' followed by a command name for more
information on commands.

CPLEX> Logfile 'cplex.log' closed.
Logfile 'C:\Users\llavin\Desktop\test826\logs\tmpa89ncl19.cplex.log' open.
CPLEX> New value for parallel optimization mode: -1
CPLEX> New value for mixed integer optimality gap tolerance: 0.01
CPLEX> New value for feasibility tolerance: 1e-09
CPLEX> New value for deterministic time limit in ticks: 100000
CPLEX> Problem 'C:\Users\llavin\Desktop\test826\logs\tmp6ck8t205.pyomo.lp' read.
Read time = 0.52 sec. (28.52 ticks)
CPLEX> Problem name         : C:\Users\llavin\Desktop\test826\logs\tmp6ck8t205.pyomo.lp
Objective sense      : Maximize
Variables            :  107781  [Nneg: 1,  Box: 44056,  Free: 8928,
                                 Binary: 54796]
Objective nonzeros   :   17555
Linear constraints   :  246901  [Less: 82866,  Greater: 118424,  Equal: 45611]
  Nonzeros           :  618255
  RHS nonzeros       :  135059

Variables            : Min LB: -5000.000        Max UB: 1000000.       
Objective nonzeros   : Min   : 0.008333333      Max   : 208.3333       
Linear constraints   :
  Nonzeros           : Min   : 0.008333333      Max   : 1000000.       
  RHS nonzeros       : Min   : 0.008333333      Max   : 1000000.       
CPLEX> CPXPARAM_Parallel                                -1
CPXPARAM_Simplex_Tolerances_Feasibility          1.0000000000000001e-09
CPXPARAM_DetTimeLimit                            100000
CPXPARAM_MIP_Tolerances_MIPGap                   0.01
Tried aggregator 3 times.
MIP Presolve eliminated 180488 rows and 40662 columns.
MIP Presolve added 6226 rows and 0 columns.
MIP Presolve modified 51145 coefficients.
Aggregator did 25931 substitutions.
Reduced MIP has 46708 rows, 39690 columns, and 158453 nonzeros.
Reduced MIP has 15653 binaries, 0 generals, 0 SOSs, and 0 indicators.
Presolve time = 0.61 sec. (381.68 ticks)
Probing fixed 792 vars, tightened 8747 bounds.
Probing time = 0.34 sec. (14.74 ticks)
Tried aggregator 2 times.
MIP Presolve eliminated 1778 rows and 1585 columns.
MIP Presolve modified 5537 coefficients.
Aggregator did 48 substitutions.
Reduced MIP has 44882 rows, 38057 columns, and 153163 nonzeros.
Reduced MIP has 14861 binaries, 0 generals, 0 SOSs, and 0 indicators.
Presolve time = 0.25 sec. (230.23 ticks)
Probing fixed 1 vars, tightened 438 bounds.
Probing time = 0.50 sec. (18.59 ticks)
Clique table members: 87918.
MIP emphasis: balance optimality and feasibility.
MIP search method: dynamic search.
Parallel mode: opportunistic, using up to 32 threads.
Root relaxation solution time = 1.00 sec. (1813.58 ticks)

        Nodes                                         Cuts/
   Node  Left     Objective  IInf  Best Integer    Best Bound    ItCnt     Gap

      0     0        0.0000     2                      0.0000     8953         
*     0+    0                            0.0000        0.0000             0.00%
      0     0        cutoff              0.0000        0.0000     8953    0.00%
Elapsed time = 3.44 sec. (2956.73 ticks, tree = 0.01 MB, solutions = 1)

Root node processing (before b&c):
  Real time             =    3.47 sec. (2960.63 ticks)
Parallel b&c, 32 threads:
  Real time             =    0.00 sec. (0.00 ticks)
  Sync time (average)   =    0.00 sec.
  Wait time (average)   =    0.00 sec.
                          ------------
Total (root+branch&cut) =    3.47 sec. (2960.63 ticks)

Solution pool: 1 solution saved.

MIP - Integer optimal solution:  Objective =  0.0000000000e+00
Solution time =    3.50 sec.  Iterations = 8953  Nodes = 0
Deterministic time = 2960.94 ticks  (845.98 ticks/sec)

CPLEX> Incumbent solution written to file 'C:\Users\llavin\Desktop\test826\logs\tmp9kdxj5ps.cplex.sol'.
CPLEX> NOTE: no warmstart specified for MIP iteration, default behavior is true
NOTE: resolving with all competitive generators using storage-only solution to warmstart
Solving...

Welcome to IBM(R) ILOG(R) CPLEX(R) Interactive Optimizer 12.9.0.0
  with Simplex, Mixed Integer & Barrier Optimizers
5725-A06 5725-A29 5724-Y48 5724-Y49 5724-Y54 5724-Y55 5655-Y21
Copyright IBM Corp. 1988, 2019.  All Rights Reserved.

Type 'help' for a list of available commands.
Type 'help' followed by a command name for more
information on commands.

CPLEX> Logfile 'cplex.log' closed.
Logfile 'C:\Users\llavin\Desktop\test826\logs\tmpy7k5ezkf.cplex.log' open.
CPLEX> New value for parallel optimization mode: -1
CPLEX> New value for mixed integer optimality gap tolerance: 0.01
CPLEX> New value for feasibility tolerance: 1e-09
CPLEX> New value for deterministic time limit in ticks: 100000
CPLEX> Problem 'C:\Users\llavin\Desktop\test826\logs\tmpyyoxa12m.pyomo.lp' read.
Read time = 0.52 sec. (28.57 ticks)
CPLEX> MIP start file 'C:\Users\llavin\Desktop\test826\logs\tmpu9rtmk2z.cplex.mst' read.
CPLEX> Problem name         : C:\Users\llavin\Desktop\test826\logs\tmpyyoxa12m.pyomo.lp
Objective sense      : Maximize
Variables            :  109221  [Nneg: 1,  Box: 45496,  Free: 8928,
                                 Binary: 54796]
Objective nonzeros   :   18947
Linear constraints   :  246901  [Less: 82866,  Greater: 118424,  Equal: 45611]
  Nonzeros           :  618255
  RHS nonzeros       :  135059

Variables            : Min LB: -5000.000        Max UB: 1000000.       
Objective nonzeros   : Min   : 0.008333333      Max   : 208.3333       
Linear constraints   :
  Nonzeros           : Min   : 0.008333333      Max   : 1000000.       
  RHS nonzeros       : Min   : 0.008333333      Max   : 1000000.       
CPLEX> CPXPARAM_Parallel                                -1
CPXPARAM_Simplex_Tolerances_Feasibility          1.0000000000000001e-09
CPXPARAM_DetTimeLimit                            100000
CPXPARAM_MIP_Tolerances_MIPGap                   0.01
1 of 1 MIP starts provided solutions.
MIP start 'm1' defined initial solution with objective 0.0000.
Tried aggregator 3 times.
MIP Presolve eliminated 180488 rows and 42102 columns.
MIP Presolve added 6226 rows and 0 columns.
MIP Presolve modified 51145 coefficients.
Aggregator did 25931 substitutions.
Reduced MIP has 46708 rows, 39690 columns, and 158453 nonzeros.
Reduced MIP has 15653 binaries, 0 generals, 0 SOSs, and 0 indicators.
Presolve time = 0.61 sec. (382.39 ticks)
Probing fixed 792 vars, tightened 8747 bounds.
Probing time = 0.38 sec. (14.74 ticks)
Tried aggregator 2 times.
MIP Presolve eliminated 1778 rows and 1585 columns.
MIP Presolve modified 5537 coefficients.
Aggregator did 48 substitutions.
Reduced MIP has 44882 rows, 38057 columns, and 153163 nonzeros.
Reduced MIP has 14861 binaries, 0 generals, 0 SOSs, and 0 indicators.
Presolve time = 0.27 sec. (230.24 ticks)
Probing fixed 1 vars, tightened 427 bounds.
Probing time = 0.53 sec. (18.59 ticks)
Clique table members: 87982.
MIP emphasis: balance optimality and feasibility.
MIP search method: dynamic search.
Parallel mode: opportunistic, using up to 32 threads.
Root relaxation solution time = 1.34 sec. (1956.89 ticks)

        Nodes                                         Cuts/
   Node  Left     Objective  IInf  Best Integer    Best Bound    ItCnt     Gap

*     0+    0                            0.0000   1.03852e+07              --- 
      0     0    20682.4535   500        0.0000    20682.4535    10873     --- 
      0     0    19105.6867   379        0.0000     Cuts: 361    11465     --- 
      0     0    19089.2716   372        0.0000     Cuts: 378    11637     --- 
      0     0    19089.2716   386        0.0000     Cuts: 277    11744     --- 
      0     0    19089.2716   235        0.0000 Flowcuts: 216    11771     --- 
      0     0    19089.2716   235        0.0000      Cuts: 14    11782     --- 
      0    14    infeasible              0.0000  Impl Bds: 11    12156     --- 
Elapsed time = 10.80 sec. (6781.24 ticks, tree = 0.02 MB, solutions = 1)
    117    46    14599.7426   149        0.0000    18891.1286    15082     --- 
    310    67    12446.9051    81        0.0000    18891.1286    16406     --- 
    601    58    11068.4245   126        0.0000    18891.1286    15949     --- 
    924   145    infeasible              0.0000    18742.8680    20214     --- 
   1237   374     4180.9728    50        0.0000    18742.8680    24424     --- 
   1490   573     9203.2352    74        0.0000    18742.8680    27531     --- 
   1677   930    infeasible              0.0000    18742.8680    35790     --- 
   1904   985     1498.0642    12        0.0000    18591.3844    37433     --- 
   2170  1137     1204.7715     6        0.0000    18056.0489    41445     --- 
   3638  1679    infeasible              0.0000    11257.0579    85625     --- 
Elapsed time = 31.70 sec. (9890.39 ticks, tree = 17.10 MB, solutions = 1)
   5589  1187    infeasible              0.0000     2299.4219   128030     --- 
   7536  1094        cutoff              0.0000      416.3061   131171     --- 

Cover cuts applied:  1
Implied bound cuts applied:  19
Flow cuts applied:  125
Mixed integer rounding cuts applied:  28
Gomory fractional cuts applied:  4

Root node processing (before b&c):
  Real time             =    8.66 sec. (6758.33 ticks)
Parallel b&c, 32 threads:
  Real time             =   34.39 sec. (5787.54 ticks)
  Sync time (average)   =    2.44 sec.
  Wait time (average)   =    0.00 sec.
                          ------------
Total (root+branch&cut) =   43.05 sec. (12545.87 ticks)

Solution pool: 1 solution saved.

MIP - Integer optimal solution:  Objective =  0.0000000000e+00
Solution time =   43.06 sec.  Iterations = 140540  Nodes = 8037
Deterministic time = 12546.18 ticks  (291.34 ticks/sec)

CPLEX> Incumbent solution written to file 'C:\Users\llavin\Desktop\test826\logs\tmp6oymxic3.cplex.sol'.
CPLEX> Exporting results... 
